
Gurobi 7.5.1 (linux64, Python) logging started Wed Nov 29 11:41:23 2017

Optimize a model with 3 rows, 2 columns and 6 nonzeros
Variable types: 0 continuous, 2 integer (0 binary)
Coefficient statistics:
  Matrix range     [1e+00, 3e+00]
  Objective range  [5e+00, 8e+00]
  Bounds range     [0e+00, 0e+00]
  RHS range        [3e+00, 7e+00]
Found heuristic solution: objective 13
Presolve removed 3 rows and 2 columns
Presolve time: 0.02s
Presolve: All rows and columns removed

Explored 0 nodes (0 simplex iterations) in 0.06 seconds
Thread count was 1 (of 8 available processors)

Solution count 1: 13 

Optimal solution found (tolerance 1.00e-04)
Best objective 1.300000000000e+01, best bound 1.300000000000e+01, gap 0.0000%
